n = 12;
Min = 1;
Max = 4;
D = 
[|0, 311, 212, 100, 433, 222, 301, 310, 221, 311, 211, 214
|311, 0, 441, 234, 211, 412, 411, 141, 331, 43, 311, 130
|212, 441, 0, 412, 101, 414, 111, 11, 100, 411, 110, 412
|100, 234, 412, 0, 101, 141, 111, 401, 112, 241, 112, 114
|433, 211, 101, 101, 0, 211, 134, 103, 201, 211, 111, 313
|222, 412, 414, 141, 211, 0, 123, 112, 14, 401, 14, 211
|301, 411, 111, 111, 134, 123, 0, 111, 121, 120, 111, 413
|310, 141, 11, 401, 103, 112, 111, 0, 111, 111, 141, 412
|221, 331, 100, 112, 201, 14, 121, 111, 0, 321, 10, 212
|311, 43, 411, 241, 211, 401, 120, 111, 321, 0, 301, 111
|211, 311, 110, 112, 111, 14, 111, 141, 10, 301, 0, 312
|214, 130, 412, 114, 313, 211, 413, 412, 212, 111, 312, 0
|];